17	4
34	26	34	42	
0	0	0	0	0	3	2	3	4	
5	5	10	9	7	3	7	11	12	
2	10	4	1	9	3	5	6	17	
7	4	5	4	6	2	9	10	
4	0	6	2	0	1	16	
25	9	0	0	8	1	17	
75	5	5	0	9	3	8	17	17	
225	7	0	7	1	1	17	
200	7	0	3	0	1	17	
250	9	8	0	7	1	15	
250	0	5	0	8	1	17	
200	0	0	1	9	2	13	14	
9	1	9	6	0	1	17	
10	1	3	10	8	1	17	
4	9	10	8	10	3	17	17	17	
9	7	1	5	9	1	17	
0	0	0	0	0	0	
